10 13 0 1 4 8 3 6 14 12 2 11 5 7 9
13 11 6 2 9 3 1 12 5 10 4 8 0 14 7
9 6 0 1 5 14 12 10 13 3 11 8 4 2 7
14 4 13 0 10 1 6 5 8 9 11 7 2 3 12
10 8 1 0 2 11 4 14 12 5 13 6 9 7 3
2 11 14 5 4 3 1 0 10 12 7 6 8 9 13
9 7 1 14 3 8 10 11 12 2 4 5 0 13 6
5 0 11 14 12 1 8 10 7 13 4 2 6 3 9
0 11 4 8 10 1 2 3 9 13 12 7 14 5 6
3 10 5 9 14 12 11 1 2 0 4 6 13 8 7
6 4 10 11 5 3 2 12 1 8 0 14 9 7 13
7 2 1 10 9 11 8 4 5 3 12 6 13 0 14
9 11 7 0 13 2 10 3 6 12 4 8 14 5 1
7 12 14 3 4 13 0 11 8 2 9 5 1 6 10
12 0 2 4 10 13 6 11 3 7 5 14 8 1 9